4
4
20
1 1.3 1.55 1.75 2.1
48 14 23 40 23 31 10 39 8 40 43 21 6 30 14 43 43 49 37 19 9 44 11 39 26 43 11 33 26 36 29 33 8 42 8 48 27 43 19 40 47 46 29 9 11 15 49 27 43 33 23 6 19 43 39 26 44 6 20 30 24 34 28 20 21 42 36 33 23 14 35 43 19 14 18 19 11 30 42 37 